#######################
Slurm job id: 17497813_310
Running on machine: p45
Running cmd: /nfs/shared/static-builds/gurobi1202 SOFTMEMLIMIT=125 MIPFocus=3 Presolve=1 TimeLimit=300 seed=9 /nfs/models/miplib2010/k16x240.mps.bz2
#######################
Set parameter TimeLimit to value 300
Set parameter SoftMemLimit to value 125
Set parameter MIPFocus to value 3
Set parameter LogFile to value 1202-MIPFocus3-Presolve1-TimeLimit300-k16x240-9.log
Set parameter Presolve to value 1
Set parameter Seed to value 9
Using license file /opt/gurobi/gurobi.lic

Gurobi Optimizer version 12.0.2 build v12.0.2rc0 (linux64 - "Ubuntu 22.04.4 LTS")
Copyright (c) 2025, Gurobi Optimization, LLC

Read MPS format model from file /nfs/models/miplib2010/k16x240.mps.bz2
Reading time = 0.00 seconds
k16x240: 256 rows, 480 columns, 960 nonzeros

Using Gurobi shared library /nfs/shared/static-builds/gurobi1202

CPU model: Intel(R) Xeon(R) E-2388G CPU @ 3.20GHz, instruction set [SSE2|AVX|AVX2|AVX512]
Thread count: 8 physical cores, 16 logical processors, using up to 16 threads

Non-default parameters:
TimeLimit  300
SoftMemLimit  125
MIPFocus  3
Presolve  1
Seed  9

Optimize a model with 256 rows, 480 columns and 960 nonzeros
Model fingerprint: 0x4e80885f
Variable types: 240 continuous, 240 integer (240 binary)
Coefficient statistics:
  Matrix range     [1e+00, 1e+03]
  Objective range  [1e+00, 1e+03]
  Bounds range     [1e+00, 1e+03]
  RHS range        [4e+00, 4e+02]
Found heuristic solution: objective 21896.000000
Presolve time: 0.00s
Presolved: 256 rows, 480 columns, 960 nonzeros
Variable types: 240 continuous, 240 integer (240 binary)

Root relaxation: objective 2.769838e+03, 51 iterations, 0.00 seconds (0.00 work units)

    Nodes    |    Current Node    |     Objective Bounds      |     Work
 Expl Unexpl |  Obj  Depth IntInf | Incumbent    BestBd   Gap | It/Node Time

     0     0 2769.83800    0   14 21896.0000 2769.83800  87.4%     -    0s
H    0     0                    11359.000000 2769.83800  75.6%     -    0s
H    0     0                    11195.000000 2769.83800  75.3%     -    0s
H    0     0                    11088.000000 2769.83800  75.0%     -    0s
H    0     0                    11074.000000 2769.83800  75.0%     -    0s
H    0     0                    10916.000000 8116.87580  25.6%     -    0s
     0     0 8116.87580    0   26 10916.0000 8116.87580  25.6%     -    0s
H    0     0                    10838.000000 8182.85928  24.5%     -    0s
H    0     0                    10836.000000 8182.85928  24.5%     -    0s
H    0     0                    10826.000000 8182.85928  24.4%     -    0s
H    0     0                    10806.000000 8182.85928  24.3%     -    0s
     0     0 8741.28533    0   24 10806.0000 8741.28533  19.1%     -    0s
H    0     0                    10794.000000 8919.90033  17.4%     -    0s
H    0     0                    10750.000000 8919.90033  17.0%     -    0s
     0     0 9006.18103    0   31 10750.0000 9006.18103  16.2%     -    0s
     0     0 9127.15643    0   32 10750.0000 9127.15643  15.1%     -    0s
     0     0 9127.15643    0   32 10750.0000 9127.15643  15.1%     -    0s
     0     0 9133.06659    0   35 10750.0000 9133.06659  15.0%     -    0s
     0     0 9280.36239    0   29 10750.0000 9280.36239  13.7%     -    0s
     0     0 9280.36239    0   30 10750.0000 9280.36239  13.7%     -    0s
     0     0 9330.69049    0   35 10750.0000 9330.69049  13.2%     -    0s
     0     0 9330.69049    0   35 10750.0000 9330.69049  13.2%     -    0s
H    0     0                    10678.000000 9330.69049  12.6%     -    0s
     0     2 9330.69049    0   35 10678.0000 9330.69049  12.6%     -    0s
H  118   131                    10674.000000 9405.15151  11.9%  62.1    0s
  5618  3487 10633.7616   31    9 10674.0000 10315.6849  3.36%  88.3    5s
 25044  6739 10655.7183   26   14 10674.0000 10577.3038  0.91%  53.8   10s

Cutting planes:
  Gomory: 1
  Lift-and-project: 12
  Cover: 2
  Implied bound: 12
  Dual implied bound: 6
  MIR: 152
  Mixing: 2
  Flow cover: 477
  Flow path: 31
  Zero half: 28
  Network: 22

Explored 37059 nodes (1524235 simplex iterations) in 10.91 seconds (14.93 work units)
Thread count was 16 (of 16 available processors)

Solution count 10: 10674 10678 10750 ... 11074

Optimal solution found (tolerance 1.00e-04)
Best objective 1.067400000000e+04, best bound 1.067300000000e+04, gap 0.0094%
